\ENCODING=ISO-8859-1
\Problem name: IloCplex

Minimize
 obj: 13.8924436569214 x(0)(1)#16 + 21.023796081543 x(0)(2)#17
      + 32.5576400756836 x(0)(3)#18 + 22.0227146148682 x(0)(4)#19
      + 23.0867919921875 x(0)(5)#20 + 12.0415945053101 x(0)(6)#21
      + 22.0227146148682 x(0)(7)#22 + 32.4499626159668 x(0)(8)#23
      + 32.0624389648438 x(0)(9)#24 + 20.8086528778076 x(0)(10)#25
      + 28.1602554321289 x(0)(11)#26 + 29.9666481018066 x(0)(12)#27
      + 29.1204395294189 x(0)(13)#28 + 30.870698928833 x(0)(14)#29
      + 29.8328685760498 x(0)(15)#30 + 13.8924436569214 x(1)(0)#31
      + 21.023796081543 x(2)(0)#32 + 32.5576400756836 x(3)(0)#33
      + 22.0227146148682 x(4)(0)#34 + 23.0867919921875 x(5)(0)#35
      + 12.0415945053101 x(6)(0)#36 + 22.0227146148682 x(7)(0)#37
      + 32.4499626159668 x(8)(0)#38 + 32.0624389648438 x(9)(0)#39
      + 20.8086528778076 x(10)(0)#40 + 28.1602554321289 x(11)(0)#41
      + 29.9666481018066 x(12)(0)#42 + 29.1204395294189 x(13)(0)#43
      + 30.870698928833 x(14)(0)#44 + 29.8328685760498 x(15)(0)#45
      + 12.3693170547485 x(1)(2)#46 + 19.2093734741211 x(1)(3)#47
      + 11.6619033813477 x(1)(4)#48 + 24.2074375152588 x(1)(5)#49
      + 12.0830459594727 x(1)(6)#50 + 18.6010761260986 x(1)(7)#51
      + 20.8806133270264 x(1)(8)#52 + 26.9258232116699 x(1)(9)#53
      + 7.07106781005859 x(1)(10)#54 + 18.8679618835449 x(1)(11)#55
      + 16.1554946899414 x(1)(12)#56 + 21.3775577545166 x(1)(13)#57
      + 32.6496543884277 x(1)(14)#58 + 17 x(1)(15)#59
      + 12.3693170547485 x(2)(1)#60 + 15.2970581054688 x(2)(3)#61
      + 22.2036037445068 x(2)(4)#62 + 16.2788200378418 x(2)(5)#63
      + 10.6301460266113 x(2)(6)#64 + 8.5440034866333 x(2)(7)#65
      + 12.0415945053101 x(2)(8)#66 + 14.7648229598999 x(2)(9)#67
      + 10.6301460266113 x(2)(10)#68 + 29.068883895874 x(2)(11)#69
      + 18.9736652374268 x(2)(12)#70 + 9.05538558959961 x(2)(13)#71
      + 23.7697277069092 x(2)(14)#72 + 23.3238067626953 x(2)(15)#73
      + 19.2093734741211 x(3)(1)#74 + 15.2970581054688 x(3)(2)#75
      + 21.0950222015381 x(3)(4)#76 + 31 x(3)(5)#77
      + 25.0798721313477 x(3)(6)#78 + 23 x(3)(7)#79
      + 7.81024980545044 x(3)(8)#80 + 24.1660919189453 x(3)(9)#81
      + 12.2065553665161 x(3)(10)#82 + 25.3179779052734 x(3)(11)#83
      + 9.48683261871338 x(3)(12)#84 + 17.0880069732666 x(3)(13)#85
      + 37.4833297729492 x(3)(14)#86 + 15.8113880157471 x(3)(15)#87
      + 11.6619033813477 x(4)(1)#88 + 22.2036037445068 x(4)(2)#89
      + 21.0950222015381 x(4)(3)#90 + 35.8050270080566 x(4)(5)#91
      + 23.7065391540527 x(4)(6)#92 + 29.6984844207764 x(4)(7)#93
      + 26.3058929443359 x(4)(8)#94 + 36.8917350769043 x(4)(9)#95
      + 12.0830459594727 x(4)(10)#96 + 7.21110248565674 x(4)(11)#97
      + 13 x(4)(12)#98 + 30.4138126373291 x(4)(13)#99
      + 44.2040710449219 x(4)(14)#100 + 9.21954441070557 x(4)(15)#101
      + 24.2074375152588 x(5)(1)#102 + 16.2788200378418 x(5)(2)#103
      + 31 x(5)(3)#104 + 35.8050270080566 x(5)(4)#105
      + 12.806248664856 x(5)(6)#106 + 8 x(5)(7)#107
      + 25.4950981140137 x(5)(8)#108 + 13.4536237716675 x(5)(9)#109
      + 26 x(5)(10)#110 + 43.0116271972656 x(5)(11)#111
      + 35.1710090637207 x(5)(12)#112 + 16.1554946899414 x(5)(13)#113
      + 8.48528099060059 x(5)(14)#114 + 39 x(5)(15)#115
      + 12.0830459594727 x(6)(1)#116 + 10.6301460266113 x(6)(2)#117
      + 25.0798721313477 x(6)(3)#118 + 23.7065391540527 x(6)(4)#119
      + 12.806248664856 x(6)(5)#120 + 10 x(6)(7)#121
      + 22.6715679168701 x(6)(8)#122 + 20.0249843597412 x(6)(9)#123
      + 16 x(6)(10)#124 + 30.886890411377 x(6)(11)#125
      + 26.0192241668701 x(6)(12)#126 + 17.4642486572266 x(6)(13)#127
      + 21.2602920532227 x(6)(14)#128 + 28.4429244995117 x(6)(15)#129
      + 18.6010761260986 x(7)(1)#130 + 8.5440034866333 x(7)(2)#131
      + 23 x(7)(3)#132 + 29.6984844207764 x(7)(4)#133 + 8 x(7)(5)#134
      + 10 x(7)(6)#135 + 17.7200450897217 x(7)(8)#136
      + 10.0498752593994 x(7)(9)#137 + 18.8679618835449 x(7)(10)#138
      + 36.7967376708984 x(7)(11)#139 + 27.5136337280273 x(7)(12)#140
      + 9.21954441070557 x(7)(13)#141 + 15.2315464019775 x(7)(14)#142
      + 31.7647609710693 x(7)(15)#143 + 20.8806133270264 x(8)(1)#144
      + 12.0415945053101 x(8)(2)#145 + 7.81024980545044 x(8)(3)#146
      + 26.3058929443359 x(8)(4)#147 + 25.4950981140137 x(8)(5)#148
      + 22.6715679168701 x(8)(6)#149 + 17.7200450897217 x(8)(7)#150
      + 16.763053894043 x(8)(9)#151 + 15.033296585083 x(8)(10)#152
      + 31.6227760314941 x(8)(11)#153 + 16.6433162689209 x(8)(12)#154
      + 10.0498752593994 x(8)(13)#155 + 31.0161247253418 x(8)(14)#156
      + 22.8254241943359 x(8)(15)#157 + 26.9258232116699 x(9)(1)#158
      + 14.7648229598999 x(9)(2)#159 + 24.1660919189453 x(9)(3)#160
      + 36.8917350769043 x(9)(4)#161 + 13.4536237716675 x(9)(5)#162
      + 20.0249843597412 x(9)(6)#163 + 10.0498752593994 x(9)(7)#164
      + 16.763053894043 x(9)(8)#165 + 25 x(9)(10)#166
      + 43.6004600524902 x(9)(11)#167 + 31.4006366729736 x(9)(12)#168
      + 7.21110248565674 x(9)(13)#169 + 15.5241746902466 x(9)(14)#170
      + 36.7967376708984 x(9)(15)#171 + 7.07106781005859 x(10)(1)#172
      + 10.6301460266113 x(10)(2)#173 + 12.2065553665161 x(10)(3)#174
      + 12.0830459594727 x(10)(4)#175 + 26 x(10)(5)#176 + 16 x(10)(6)#177
      + 18.8679618835449 x(10)(7)#178 + 15.033296585083 x(10)(8)#179
      + 25 x(10)(9)#180 + 18.6010761260986 x(10)(11)#181
      + 10.0498752593994 x(10)(12)#182 + 18.3575592041016 x(10)(13)#183
      + 34 x(10)(14)#184 + 13 x(10)(15)#185 + 18.8679618835449 x(11)(1)#186
      + 29.068883895874 x(11)(2)#187 + 25.3179779052734 x(11)(3)#188
      + 7.21110248565674 x(11)(4)#189 + 43.0116271972656 x(11)(5)#190
      + 30.886890411377 x(11)(6)#191 + 36.7967376708984 x(11)(7)#192
      + 31.6227760314941 x(11)(8)#193 + 43.6004600524902 x(11)(9)#194
      + 18.6010761260986 x(11)(10)#195 + 16.0312194824219 x(11)(12)#196
      + 36.8917350769043 x(11)(13)#197 + 51.400390625 x(11)(14)#198
      + 10.0498752593994 x(11)(15)#199 + 16.1554946899414 x(12)(1)#200
      + 18.9736652374268 x(12)(2)#201 + 9.48683261871338 x(12)(3)#202
      + 13 x(12)(4)#203 + 35.1710090637207 x(12)(5)#204
      + 26.0192241668701 x(12)(6)#205 + 27.5136337280273 x(12)(7)#206
      + 16.6433162689209 x(12)(8)#207 + 31.4006366729736 x(12)(9)#208
      + 10.0498752593994 x(12)(10)#209 + 16.0312194824219 x(12)(11)#210
      + 24.2074375152588 x(12)(13)#211 + 42.7200202941895 x(12)(14)#212
      + 6.32455539703369 x(12)(15)#213 + 21.3775577545166 x(13)(1)#214
      + 9.05538558959961 x(13)(2)#215 + 17.0880069732666 x(13)(3)#216
      + 30.4138126373291 x(13)(4)#217 + 16.1554946899414 x(13)(5)#218
      + 17.4642486572266 x(13)(6)#219 + 9.21954441070557 x(13)(7)#220
      + 10.0498752593994 x(13)(8)#221 + 7.21110248565674 x(13)(9)#222
      + 18.3575592041016 x(13)(10)#223 + 36.8917350769043 x(13)(11)#224
      + 24.2074375152588 x(13)(12)#225 + 21 x(13)(14)#226
      + 29.6984844207764 x(13)(15)#227 + 32.6496543884277 x(14)(1)#228
      + 23.7697277069092 x(14)(2)#229 + 37.4833297729492 x(14)(3)#230
      + 44.2040710449219 x(14)(4)#231 + 8.48528099060059 x(14)(5)#232
      + 21.2602920532227 x(14)(6)#233 + 15.2315464019775 x(14)(7)#234
      + 31.0161247253418 x(14)(8)#235 + 15.5241746902466 x(14)(9)#236
      + 34 x(14)(10)#237 + 51.400390625 x(14)(11)#238
      + 42.7200202941895 x(14)(12)#239 + 21 x(14)(13)#240
      + 46.9574279785156 x(14)(15)#241 + 17 x(15)(1)#242
      + 23.3238067626953 x(15)(2)#243 + 15.8113880157471 x(15)(3)#244
      + 9.21954441070557 x(15)(4)#245 + 39 x(15)(5)#246
      + 28.4429244995117 x(15)(6)#247 + 31.7647609710693 x(15)(7)#248
      + 22.8254241943359 x(15)(8)#249 + 36.7967376708984 x(15)(9)#250
      + 13 x(15)(10)#251 + 10.0498752593994 x(15)(11)#252
      + 6.32455539703369 x(15)(12)#253 + 29.6984844207764 x(15)(13)#254
      + 46.9574279785156 x(15)(14)#255
Subject To
 c1:                   x(0)(0)#0  = 0
 c2:                   x(1)(1)#1  = 0
 c3:                   x(2)(2)#2  = 0
 c4:                   x(3)(3)#3  = 0
 c5:                   x(4)(4)#4  = 0
 c6:                   x(5)(5)#5  = 0
 c7:                   x(6)(6)#6  = 0
 c8:                   x(7)(7)#7  = 0
 c9:                   x(8)(8)#8  = 0
 c10:                  x(9)(9)#9  = 0
 c11:                  x(10)(10)#10  = 0
 c12:                  x(11)(11)#11  = 0
 c13:                  x(12)(12)#12  = 0
 c14:                  x(13)(13)#13  = 0
 c15:                  x(14)(14)#14  = 0
 c16:                  x(15)(15)#15  = 0
 Arc_sortant_de_depot: x(0)(0)#0 + x(0)(1)#16 + x(0)(2)#17 + x(0)(3)#18
                       + x(0)(4)#19 + x(0)(5)#20 + x(0)(6)#21 + x(0)(7)#22
                       + x(0)(8)#23 + x(0)(9)#24 + x(0)(10)#25 + x(0)(11)#26
                       + x(0)(12)#27 + x(0)(13)#28 + x(0)(14)#29 + x(0)(15)#30
                       <= 8
 Arc_entrant_a_depot:  x(0)(0)#0 + x(1)(0)#31 + x(2)(0)#32 + x(3)(0)#33
                       + x(4)(0)#34 + x(5)(0)#35 + x(6)(0)#36 + x(7)(0)#37
                       + x(8)(0)#38 + x(9)(0)#39 + x(10)(0)#40 + x(11)(0)#41
                       + x(12)(0)#42 + x(13)(0)#43 + x(14)(0)#44 + x(15)(0)#45
                       <= 8
 Arc_sortant_de_1:     x(1)(1)#1 + x(1)(0)#31 + x(1)(2)#46 + x(1)(3)#47
                       + x(1)(4)#48 + x(1)(5)#49 + x(1)(6)#50 + x(1)(7)#51
                       + x(1)(8)#52 + x(1)(9)#53 + x(1)(10)#54 + x(1)(11)#55
                       + x(1)(12)#56 + x(1)(13)#57 + x(1)(14)#58 + x(1)(15)#59
                        = 1
 Arc_sortant_de_2:     x(2)(2)#2 + x(2)(0)#32 + x(2)(1)#60 + x(2)(3)#61
                       + x(2)(4)#62 + x(2)(5)#63 + x(2)(6)#64 + x(2)(7)#65
                       + x(2)(8)#66 + x(2)(9)#67 + x(2)(10)#68 + x(2)(11)#69
                       + x(2)(12)#70 + x(2)(13)#71 + x(2)(14)#72 + x(2)(15)#73
                        = 1
 Arc_sortant_de_3:     x(3)(3)#3 + x(3)(0)#33 + x(3)(1)#74 + x(3)(2)#75
                       + x(3)(4)#76 + x(3)(5)#77 + x(3)(6)#78 + x(3)(7)#79
                       + x(3)(8)#80 + x(3)(9)#81 + x(3)(10)#82 + x(3)(11)#83
                       + x(3)(12)#84 + x(3)(13)#85 + x(3)(14)#86 + x(3)(15)#87
                        = 1
 Arc_sortant_de_4:     x(4)(4)#4 + x(4)(0)#34 + x(4)(1)#88 + x(4)(2)#89
                       + x(4)(3)#90 + x(4)(5)#91 + x(4)(6)#92 + x(4)(7)#93
                       + x(4)(8)#94 + x(4)(9)#95 + x(4)(10)#96 + x(4)(11)#97
                       + x(4)(12)#98 + x(4)(13)#99 + x(4)(14)#100
                       + x(4)(15)#101  = 1
 Arc_sortant_de_5:     x(5)(5)#5 + x(5)(0)#35 + x(5)(1)#102 + x(5)(2)#103
                       + x(5)(3)#104 + x(5)(4)#105 + x(5)(6)#106 + x(5)(7)#107
                       + x(5)(8)#108 + x(5)(9)#109 + x(5)(10)#110
                       + x(5)(11)#111 + x(5)(12)#112 + x(5)(13)#113
                       + x(5)(14)#114 + x(5)(15)#115  = 1
 Arc_sortant_de_6:     x(6)(6)#6 + x(6)(0)#36 + x(6)(1)#116 + x(6)(2)#117
                       + x(6)(3)#118 + x(6)(4)#119 + x(6)(5)#120 + x(6)(7)#121
                       + x(6)(8)#122 + x(6)(9)#123 + x(6)(10)#124
                       + x(6)(11)#125 + x(6)(12)#126 + x(6)(13)#127
                       + x(6)(14)#128 + x(6)(15)#129  = 1
 Arc_sortant_de_7:     x(7)(7)#7 + x(7)(0)#37 + x(7)(1)#130 + x(7)(2)#131
                       + x(7)(3)#132 + x(7)(4)#133 + x(7)(5)#134 + x(7)(6)#135
                       + x(7)(8)#136 + x(7)(9)#137 + x(7)(10)#138
                       + x(7)(11)#139 + x(7)(12)#140 + x(7)(13)#141
                       + x(7)(14)#142 + x(7)(15)#143  = 1
 Arc_sortant_de_8:     x(8)(8)#8 + x(8)(0)#38 + x(8)(1)#144 + x(8)(2)#145
                       + x(8)(3)#146 + x(8)(4)#147 + x(8)(5)#148 + x(8)(6)#149
                       + x(8)(7)#150 + x(8)(9)#151 + x(8)(10)#152
                       + x(8)(11)#153 + x(8)(12)#154 + x(8)(13)#155
                       + x(8)(14)#156 + x(8)(15)#157  = 1
 Arc_sortant_de_9:     x(9)(9)#9 + x(9)(0)#39 + x(9)(1)#158 + x(9)(2)#159
                       + x(9)(3)#160 + x(9)(4)#161 + x(9)(5)#162 + x(9)(6)#163
                       + x(9)(7)#164 + x(9)(8)#165 + x(9)(10)#166
                       + x(9)(11)#167 + x(9)(12)#168 + x(9)(13)#169
                       + x(9)(14)#170 + x(9)(15)#171  = 1
 Arc_sortant_de_10:    x(10)(10)#10 + x(10)(0)#40 + x(10)(1)#172 + x(10)(2)#173
                       + x(10)(3)#174 + x(10)(4)#175 + x(10)(5)#176
                       + x(10)(6)#177 + x(10)(7)#178 + x(10)(8)#179
                       + x(10)(9)#180 + x(10)(11)#181 + x(10)(12)#182
                       + x(10)(13)#183 + x(10)(14)#184 + x(10)(15)#185  = 1
 Arc_sortant_de_11:    x(11)(11)#11 + x(11)(0)#41 + x(11)(1)#186 + x(11)(2)#187
                       + x(11)(3)#188 + x(11)(4)#189 + x(11)(5)#190
                       + x(11)(6)#191 + x(11)(7)#192 + x(11)(8)#193
                       + x(11)(9)#194 + x(11)(10)#195 + x(11)(12)#196
                       + x(11)(13)#197 + x(11)(14)#198 + x(11)(15)#199  = 1
 Arc_sortant_de_12:    x(12)(12)#12 + x(12)(0)#42 + x(12)(1)#200 + x(12)(2)#201
                       + x(12)(3)#202 + x(12)(4)#203 + x(12)(5)#204
                       + x(12)(6)#205 + x(12)(7)#206 + x(12)(8)#207
                       + x(12)(9)#208 + x(12)(10)#209 + x(12)(11)#210
                       + x(12)(13)#211 + x(12)(14)#212 + x(12)(15)#213  = 1
 Arc_sortant_de_13:    x(13)(13)#13 + x(13)(0)#43 + x(13)(1)#214 + x(13)(2)#215
                       + x(13)(3)#216 + x(13)(4)#217 + x(13)(5)#218
                       + x(13)(6)#219 + x(13)(7)#220 + x(13)(8)#221
                       + x(13)(9)#222 + x(13)(10)#223 + x(13)(11)#224
                       + x(13)(12)#225 + x(13)(14)#226 + x(13)(15)#227  = 1
 Arc_sortant_de_14:    x(14)(14)#14 + x(14)(0)#44 + x(14)(1)#228 + x(14)(2)#229
                       + x(14)(3)#230 + x(14)(4)#231 + x(14)(5)#232
                       + x(14)(6)#233 + x(14)(7)#234 + x(14)(8)#235
                       + x(14)(9)#236 + x(14)(10)#237 + x(14)(11)#238
                       + x(14)(12)#239 + x(14)(13)#240 + x(14)(15)#241  = 1
 Arc_sortant_de_15:    x(15)(15)#15 + x(15)(0)#45 + x(15)(1)#242 + x(15)(2)#243
                       + x(15)(3)#244 + x(15)(4)#245 + x(15)(5)#246
                       + x(15)(6)#247 + x(15)(7)#248 + x(15)(8)#249
                       + x(15)(9)#250 + x(15)(10)#251 + x(15)(11)#252
                       + x(15)(12)#253 + x(15)(13)#254 + x(15)(14)#255  = 1
 Arc_entrant_a_1:      x(1)(1)#1 + x(0)(1)#16 + x(2)(1)#60 + x(3)(1)#74
                       + x(4)(1)#88 + x(5)(1)#102 + x(6)(1)#116 + x(7)(1)#130
                       + x(8)(1)#144 + x(9)(1)#158 + x(10)(1)#172
                       + x(11)(1)#186 + x(12)(1)#200 + x(13)(1)#214
                       + x(14)(1)#228 + x(15)(1)#242  = 1
 Arc_entrant_a_2:      x(2)(2)#2 + x(0)(2)#17 + x(1)(2)#46 + x(3)(2)#75
                       + x(4)(2)#89 + x(5)(2)#103 + x(6)(2)#117 + x(7)(2)#131
                       + x(8)(2)#145 + x(9)(2)#159 + x(10)(2)#173
                       + x(11)(2)#187 + x(12)(2)#201 + x(13)(2)#215
                       + x(14)(2)#229 + x(15)(2)#243  = 1
 Arc_entrant_a_3:      x(3)(3)#3 + x(0)(3)#18 + x(1)(3)#47 + x(2)(3)#61
                       + x(4)(3)#90 + x(5)(3)#104 + x(6)(3)#118 + x(7)(3)#132
                       + x(8)(3)#146 + x(9)(3)#160 + x(10)(3)#174
                       + x(11)(3)#188 + x(12)(3)#202 + x(13)(3)#216
                       + x(14)(3)#230 + x(15)(3)#244  = 1
 Arc_entrant_a_4:      x(4)(4)#4 + x(0)(4)#19 + x(1)(4)#48 + x(2)(4)#62
                       + x(3)(4)#76 + x(5)(4)#105 + x(6)(4)#119 + x(7)(4)#133
                       + x(8)(4)#147 + x(9)(4)#161 + x(10)(4)#175
                       + x(11)(4)#189 + x(12)(4)#203 + x(13)(4)#217
                       + x(14)(4)#231 + x(15)(4)#245  = 1
 Arc_entrant_a_5:      x(5)(5)#5 + x(0)(5)#20 + x(1)(5)#49 + x(2)(5)#63
                       + x(3)(5)#77 + x(4)(5)#91 + x(6)(5)#120 + x(7)(5)#134
                       + x(8)(5)#148 + x(9)(5)#162 + x(10)(5)#176
                       + x(11)(5)#190 + x(12)(5)#204 + x(13)(5)#218
                       + x(14)(5)#232 + x(15)(5)#246  = 1
 Arc_entrant_a_6:      x(6)(6)#6 + x(0)(6)#21 + x(1)(6)#50 + x(2)(6)#64
                       + x(3)(6)#78 + x(4)(6)#92 + x(5)(6)#106 + x(7)(6)#135
                       + x(8)(6)#149 + x(9)(6)#163 + x(10)(6)#177
                       + x(11)(6)#191 + x(12)(6)#205 + x(13)(6)#219
                       + x(14)(6)#233 + x(15)(6)#247  = 1
 Arc_entrant_a_7:      x(7)(7)#7 + x(0)(7)#22 + x(1)(7)#51 + x(2)(7)#65
                       + x(3)(7)#79 + x(4)(7)#93 + x(5)(7)#107 + x(6)(7)#121
                       + x(8)(7)#150 + x(9)(7)#164 + x(10)(7)#178
                       + x(11)(7)#192 + x(12)(7)#206 + x(13)(7)#220
                       + x(14)(7)#234 + x(15)(7)#248  = 1
 Arc_entrant_a_8:      x(8)(8)#8 + x(0)(8)#23 + x(1)(8)#52 + x(2)(8)#66
                       + x(3)(8)#80 + x(4)(8)#94 + x(5)(8)#108 + x(6)(8)#122
                       + x(7)(8)#136 + x(9)(8)#165 + x(10)(8)#179
                       + x(11)(8)#193 + x(12)(8)#207 + x(13)(8)#221
                       + x(14)(8)#235 + x(15)(8)#249  = 1
 Arc_entrant_a_9:      x(9)(9)#9 + x(0)(9)#24 + x(1)(9)#53 + x(2)(9)#67
                       + x(3)(9)#81 + x(4)(9)#95 + x(5)(9)#109 + x(6)(9)#123
                       + x(7)(9)#137 + x(8)(9)#151 + x(10)(9)#180
                       + x(11)(9)#194 + x(12)(9)#208 + x(13)(9)#222
                       + x(14)(9)#236 + x(15)(9)#250  = 1
 Arc_entrant_a_10:     x(10)(10)#10 + x(0)(10)#25 + x(1)(10)#54 + x(2)(10)#68
                       + x(3)(10)#82 + x(4)(10)#96 + x(5)(10)#110
                       + x(6)(10)#124 + x(7)(10)#138 + x(8)(10)#152
                       + x(9)(10)#166 + x(11)(10)#195 + x(12)(10)#209
                       + x(13)(10)#223 + x(14)(10)#237 + x(15)(10)#251  = 1
 Arc_entrant_a_11:     x(11)(11)#11 + x(0)(11)#26 + x(1)(11)#55 + x(2)(11)#69
                       + x(3)(11)#83 + x(4)(11)#97 + x(5)(11)#111
                       + x(6)(11)#125 + x(7)(11)#139 + x(8)(11)#153
                       + x(9)(11)#167 + x(10)(11)#181 + x(12)(11)#210
                       + x(13)(11)#224 + x(14)(11)#238 + x(15)(11)#252  = 1
 Arc_entrant_a_12:     x(12)(12)#12 + x(0)(12)#27 + x(1)(12)#56 + x(2)(12)#70
                       + x(3)(12)#84 + x(4)(12)#98 + x(5)(12)#112
                       + x(6)(12)#126 + x(7)(12)#140 + x(8)(12)#154
                       + x(9)(12)#168 + x(10)(12)#182 + x(11)(12)#196
                       + x(13)(12)#225 + x(14)(12)#239 + x(15)(12)#253  = 1
 Arc_entrant_a_13:     x(13)(13)#13 + x(0)(13)#28 + x(1)(13)#57 + x(2)(13)#71
                       + x(3)(13)#85 + x(4)(13)#99 + x(5)(13)#113
                       + x(6)(13)#127 + x(7)(13)#141 + x(8)(13)#155
                       + x(9)(13)#169 + x(10)(13)#183 + x(11)(13)#197
                       + x(12)(13)#211 + x(14)(13)#240 + x(15)(13)#254  = 1
 Arc_entrant_a_14:     x(14)(14)#14 + x(0)(14)#29 + x(1)(14)#58 + x(2)(14)#72
                       + x(3)(14)#86 + x(4)(14)#100 + x(5)(14)#114
                       + x(6)(14)#128 + x(7)(14)#142 + x(8)(14)#156
                       + x(9)(14)#170 + x(10)(14)#184 + x(11)(14)#198
                       + x(12)(14)#212 + x(13)(14)#226 + x(15)(14)#255  = 1
 Arc_entrant_a_15:     x(15)(15)#15 + x(0)(15)#30 + x(1)(15)#59 + x(2)(15)#73
                       + x(3)(15)#87 + x(4)(15)#101 + x(5)(15)#115
                       + x(6)(15)#129 + x(7)(15)#143 + x(8)(15)#157
                       + x(9)(15)#171 + x(10)(15)#185 + x(11)(15)#199
                       + x(12)(15)#213 + x(13)(15)#227 + x(14)(15)#241  = 1
Bounds
 0 <= x(0)(0)#0 <= 1
 0 <= x(1)(1)#1 <= 1
 0 <= x(2)(2)#2 <= 1
 0 <= x(3)(3)#3 <= 1
 0 <= x(4)(4)#4 <= 1
 0 <= x(5)(5)#5 <= 1
 0 <= x(6)(6)#6 <= 1
 0 <= x(7)(7)#7 <= 1
 0 <= x(8)(8)#8 <= 1
 0 <= x(9)(9)#9 <= 1
 0 <= x(10)(10)#10 <= 1
 0 <= x(11)(11)#11 <= 1
 0 <= x(12)(12)#12 <= 1
 0 <= x(13)(13)#13 <= 1
 0 <= x(14)(14)#14 <= 1
 0 <= x(15)(15)#15 <= 1
 0 <= x(0)(1)#16 <= 1
 0 <= x(0)(2)#17 <= 1
 0 <= x(0)(3)#18 <= 1
 0 <= x(0)(4)#19 <= 1
 0 <= x(0)(5)#20 <= 1
 0 <= x(0)(6)#21 <= 1
 0 <= x(0)(7)#22 <= 1
 0 <= x(0)(8)#23 <= 1
 0 <= x(0)(9)#24 <= 1
 0 <= x(0)(10)#25 <= 1
 0 <= x(0)(11)#26 <= 1
 0 <= x(0)(12)#27 <= 1
 0 <= x(0)(13)#28 <= 1
 0 <= x(0)(14)#29 <= 1
 0 <= x(0)(15)#30 <= 1
 0 <= x(1)(0)#31 <= 1
 0 <= x(2)(0)#32 <= 1
 0 <= x(3)(0)#33 <= 1
 0 <= x(4)(0)#34 <= 1
 0 <= x(5)(0)#35 <= 1
 0 <= x(6)(0)#36 <= 1
 0 <= x(7)(0)#37 <= 1
 0 <= x(8)(0)#38 <= 1
 0 <= x(9)(0)#39 <= 1
 0 <= x(10)(0)#40 <= 1
 0 <= x(11)(0)#41 <= 1
 0 <= x(12)(0)#42 <= 1
 0 <= x(13)(0)#43 <= 1
 0 <= x(14)(0)#44 <= 1
 0 <= x(15)(0)#45 <= 1
 0 <= x(1)(2)#46 <= 1
 0 <= x(1)(3)#47 <= 1
 0 <= x(1)(4)#48 <= 1
 0 <= x(1)(5)#49 <= 1
 0 <= x(1)(6)#50 <= 1
 0 <= x(1)(7)#51 <= 1
 0 <= x(1)(8)#52 <= 1
 0 <= x(1)(9)#53 <= 1
 0 <= x(1)(10)#54 <= 1
 0 <= x(1)(11)#55 <= 1
 0 <= x(1)(12)#56 <= 1
 0 <= x(1)(13)#57 <= 1
 0 <= x(1)(14)#58 <= 1
 0 <= x(1)(15)#59 <= 1
 0 <= x(2)(1)#60 <= 1
 0 <= x(2)(3)#61 <= 1
 0 <= x(2)(4)#62 <= 1
 0 <= x(2)(5)#63 <= 1
 0 <= x(2)(6)#64 <= 1
 0 <= x(2)(7)#65 <= 1
 0 <= x(2)(8)#66 <= 1
 0 <= x(2)(9)#67 <= 1
 0 <= x(2)(10)#68 <= 1
 0 <= x(2)(11)#69 <= 1
 0 <= x(2)(12)#70 <= 1
 0 <= x(2)(13)#71 <= 1
 0 <= x(2)(14)#72 <= 1
 0 <= x(2)(15)#73 <= 1
 0 <= x(3)(1)#74 <= 1
 0 <= x(3)(2)#75 <= 1
 0 <= x(3)(4)#76 <= 1
 0 <= x(3)(5)#77 <= 1
 0 <= x(3)(6)#78 <= 1
 0 <= x(3)(7)#79 <= 1
 0 <= x(3)(8)#80 <= 1
 0 <= x(3)(9)#81 <= 1
 0 <= x(3)(10)#82 <= 1
 0 <= x(3)(11)#83 <= 1
 0 <= x(3)(12)#84 <= 1
 0 <= x(3)(13)#85 <= 1
 0 <= x(3)(14)#86 <= 1
 0 <= x(3)(15)#87 <= 1
 0 <= x(4)(1)#88 <= 1
 0 <= x(4)(2)#89 <= 1
 0 <= x(4)(3)#90 <= 1
 0 <= x(4)(5)#91 <= 1
 0 <= x(4)(6)#92 <= 1
 0 <= x(4)(7)#93 <= 1
 0 <= x(4)(8)#94 <= 1
 0 <= x(4)(9)#95 <= 1
 0 <= x(4)(10)#96 <= 1
 0 <= x(4)(11)#97 <= 1
 0 <= x(4)(12)#98 <= 1
 0 <= x(4)(13)#99 <= 1
 0 <= x(4)(14)#100 <= 1
 0 <= x(4)(15)#101 <= 1
 0 <= x(5)(1)#102 <= 1
 0 <= x(5)(2)#103 <= 1
 0 <= x(5)(3)#104 <= 1
 0 <= x(5)(4)#105 <= 1
 0 <= x(5)(6)#106 <= 1
 0 <= x(5)(7)#107 <= 1
 0 <= x(5)(8)#108 <= 1
 0 <= x(5)(9)#109 <= 1
 0 <= x(5)(10)#110 <= 1
 0 <= x(5)(11)#111 <= 1
 0 <= x(5)(12)#112 <= 1
 0 <= x(5)(13)#113 <= 1
 0 <= x(5)(14)#114 <= 1
 0 <= x(5)(15)#115 <= 1
 0 <= x(6)(1)#116 <= 1
 0 <= x(6)(2)#117 <= 1
 0 <= x(6)(3)#118 <= 1
 0 <= x(6)(4)#119 <= 1
 0 <= x(6)(5)#120 <= 1
 0 <= x(6)(7)#121 <= 1
 0 <= x(6)(8)#122 <= 1
 0 <= x(6)(9)#123 <= 1
 0 <= x(6)(10)#124 <= 1
 0 <= x(6)(11)#125 <= 1
 0 <= x(6)(12)#126 <= 1
 0 <= x(6)(13)#127 <= 1
 0 <= x(6)(14)#128 <= 1
 0 <= x(6)(15)#129 <= 1
 0 <= x(7)(1)#130 <= 1
 0 <= x(7)(2)#131 <= 1
 0 <= x(7)(3)#132 <= 1
 0 <= x(7)(4)#133 <= 1
 0 <= x(7)(5)#134 <= 1
 0 <= x(7)(6)#135 <= 1
 0 <= x(7)(8)#136 <= 1
 0 <= x(7)(9)#137 <= 1
 0 <= x(7)(10)#138 <= 1
 0 <= x(7)(11)#139 <= 1
 0 <= x(7)(12)#140 <= 1
 0 <= x(7)(13)#141 <= 1
 0 <= x(7)(14)#142 <= 1
 0 <= x(7)(15)#143 <= 1
 0 <= x(8)(1)#144 <= 1
 0 <= x(8)(2)#145 <= 1
 0 <= x(8)(3)#146 <= 1
 0 <= x(8)(4)#147 <= 1
 0 <= x(8)(5)#148 <= 1
 0 <= x(8)(6)#149 <= 1
 0 <= x(8)(7)#150 <= 1
 0 <= x(8)(9)#151 <= 1
 0 <= x(8)(10)#152 <= 1
 0 <= x(8)(11)#153 <= 1
 0 <= x(8)(12)#154 <= 1
 0 <= x(8)(13)#155 <= 1
 0 <= x(8)(14)#156 <= 1
 0 <= x(8)(15)#157 <= 1
 0 <= x(9)(1)#158 <= 1
 0 <= x(9)(2)#159 <= 1
 0 <= x(9)(3)#160 <= 1
 0 <= x(9)(4)#161 <= 1
 0 <= x(9)(5)#162 <= 1
 0 <= x(9)(6)#163 <= 1
 0 <= x(9)(7)#164 <= 1
 0 <= x(9)(8)#165 <= 1
 0 <= x(9)(10)#166 <= 1
 0 <= x(9)(11)#167 <= 1
 0 <= x(9)(12)#168 <= 1
 0 <= x(9)(13)#169 <= 1
 0 <= x(9)(14)#170 <= 1
 0 <= x(9)(15)#171 <= 1
 0 <= x(10)(1)#172 <= 1
 0 <= x(10)(2)#173 <= 1
 0 <= x(10)(3)#174 <= 1
 0 <= x(10)(4)#175 <= 1
 0 <= x(10)(5)#176 <= 1
 0 <= x(10)(6)#177 <= 1
 0 <= x(10)(7)#178 <= 1
 0 <= x(10)(8)#179 <= 1
 0 <= x(10)(9)#180 <= 1
 0 <= x(10)(11)#181 <= 1
 0 <= x(10)(12)#182 <= 1
 0 <= x(10)(13)#183 <= 1
 0 <= x(10)(14)#184 <= 1
 0 <= x(10)(15)#185 <= 1
 0 <= x(11)(1)#186 <= 1
 0 <= x(11)(2)#187 <= 1
 0 <= x(11)(3)#188 <= 1
 0 <= x(11)(4)#189 <= 1
 0 <= x(11)(5)#190 <= 1
 0 <= x(11)(6)#191 <= 1
 0 <= x(11)(7)#192 <= 1
 0 <= x(11)(8)#193 <= 1
 0 <= x(11)(9)#194 <= 1
 0 <= x(11)(10)#195 <= 1
 0 <= x(11)(12)#196 <= 1
 0 <= x(11)(13)#197 <= 1
 0 <= x(11)(14)#198 <= 1
 0 <= x(11)(15)#199 <= 1
 0 <= x(12)(1)#200 <= 1
 0 <= x(12)(2)#201 <= 1
 0 <= x(12)(3)#202 <= 1
 0 <= x(12)(4)#203 <= 1
 0 <= x(12)(5)#204 <= 1
 0 <= x(12)(6)#205 <= 1
 0 <= x(12)(7)#206 <= 1
 0 <= x(12)(8)#207 <= 1
 0 <= x(12)(9)#208 <= 1
 0 <= x(12)(10)#209 <= 1
 0 <= x(12)(11)#210 <= 1
 0 <= x(12)(13)#211 <= 1
 0 <= x(12)(14)#212 <= 1
 0 <= x(12)(15)#213 <= 1
 0 <= x(13)(1)#214 <= 1
 0 <= x(13)(2)#215 <= 1
 0 <= x(13)(3)#216 <= 1
 0 <= x(13)(4)#217 <= 1
 0 <= x(13)(5)#218 <= 1
 0 <= x(13)(6)#219 <= 1
 0 <= x(13)(7)#220 <= 1
 0 <= x(13)(8)#221 <= 1
 0 <= x(13)(9)#222 <= 1
 0 <= x(13)(10)#223 <= 1
 0 <= x(13)(11)#224 <= 1
 0 <= x(13)(12)#225 <= 1
 0 <= x(13)(14)#226 <= 1
 0 <= x(13)(15)#227 <= 1
 0 <= x(14)(1)#228 <= 1
 0 <= x(14)(2)#229 <= 1
 0 <= x(14)(3)#230 <= 1
 0 <= x(14)(4)#231 <= 1
 0 <= x(14)(5)#232 <= 1
 0 <= x(14)(6)#233 <= 1
 0 <= x(14)(7)#234 <= 1
 0 <= x(14)(8)#235 <= 1
 0 <= x(14)(9)#236 <= 1
 0 <= x(14)(10)#237 <= 1
 0 <= x(14)(11)#238 <= 1
 0 <= x(14)(12)#239 <= 1
 0 <= x(14)(13)#240 <= 1
 0 <= x(14)(15)#241 <= 1
 0 <= x(15)(1)#242 <= 1
 0 <= x(15)(2)#243 <= 1
 0 <= x(15)(3)#244 <= 1
 0 <= x(15)(4)#245 <= 1
 0 <= x(15)(5)#246 <= 1
 0 <= x(15)(6)#247 <= 1
 0 <= x(15)(7)#248 <= 1
 0 <= x(15)(8)#249 <= 1
 0 <= x(15)(9)#250 <= 1
 0 <= x(15)(10)#251 <= 1
 0 <= x(15)(11)#252 <= 1
 0 <= x(15)(12)#253 <= 1
 0 <= x(15)(13)#254 <= 1
 0 <= x(15)(14)#255 <= 1
Binaries
 x(0)(0)#0  x(1)(1)#1  x(2)(2)#2  x(3)(3)#3  x(4)(4)#4  x(5)(5)#5  x(6)(6)#6 
 x(7)(7)#7  x(8)(8)#8  x(9)(9)#9  x(10)(10)#10  x(11)(11)#11  x(12)(12)#12 
 x(13)(13)#13  x(14)(14)#14  x(15)(15)#15  x(0)(1)#16  x(0)(2)#17  x(0)(3)#18 
 x(0)(4)#19  x(0)(5)#20  x(0)(6)#21  x(0)(7)#22  x(0)(8)#23  x(0)(9)#24 
 x(0)(10)#25  x(0)(11)#26  x(0)(12)#27  x(0)(13)#28  x(0)(14)#29  x(0)(15)#30 
 x(1)(0)#31  x(2)(0)#32  x(3)(0)#33  x(4)(0)#34  x(5)(0)#35  x(6)(0)#36 
 x(7)(0)#37  x(8)(0)#38  x(9)(0)#39  x(10)(0)#40  x(11)(0)#41  x(12)(0)#42 
 x(13)(0)#43  x(14)(0)#44  x(15)(0)#45  x(1)(2)#46  x(1)(3)#47  x(1)(4)#48 
 x(1)(5)#49  x(1)(6)#50  x(1)(7)#51  x(1)(8)#52  x(1)(9)#53  x(1)(10)#54 
 x(1)(11)#55  x(1)(12)#56  x(1)(13)#57  x(1)(14)#58  x(1)(15)#59  x(2)(1)#60 
 x(2)(3)#61  x(2)(4)#62  x(2)(5)#63  x(2)(6)#64  x(2)(7)#65  x(2)(8)#66 
 x(2)(9)#67  x(2)(10)#68  x(2)(11)#69  x(2)(12)#70  x(2)(13)#71  x(2)(14)#72 
 x(2)(15)#73  x(3)(1)#74  x(3)(2)#75  x(3)(4)#76  x(3)(5)#77  x(3)(6)#78 
 x(3)(7)#79  x(3)(8)#80  x(3)(9)#81  x(3)(10)#82  x(3)(11)#83  x(3)(12)#84 
 x(3)(13)#85  x(3)(14)#86  x(3)(15)#87  x(4)(1)#88  x(4)(2)#89  x(4)(3)#90 
 x(4)(5)#91  x(4)(6)#92  x(4)(7)#93  x(4)(8)#94  x(4)(9)#95  x(4)(10)#96 
 x(4)(11)#97  x(4)(12)#98  x(4)(13)#99  x(4)(14)#100  x(4)(15)#101 
 x(5)(1)#102  x(5)(2)#103  x(5)(3)#104  x(5)(4)#105  x(5)(6)#106  x(5)(7)#107 
 x(5)(8)#108  x(5)(9)#109  x(5)(10)#110  x(5)(11)#111  x(5)(12)#112 
 x(5)(13)#113  x(5)(14)#114  x(5)(15)#115  x(6)(1)#116  x(6)(2)#117 
 x(6)(3)#118  x(6)(4)#119  x(6)(5)#120  x(6)(7)#121  x(6)(8)#122  x(6)(9)#123 
 x(6)(10)#124  x(6)(11)#125  x(6)(12)#126  x(6)(13)#127  x(6)(14)#128 
 x(6)(15)#129  x(7)(1)#130  x(7)(2)#131  x(7)(3)#132  x(7)(4)#133  x(7)(5)#134 
 x(7)(6)#135  x(7)(8)#136  x(7)(9)#137  x(7)(10)#138  x(7)(11)#139 
 x(7)(12)#140  x(7)(13)#141  x(7)(14)#142  x(7)(15)#143  x(8)(1)#144 
 x(8)(2)#145  x(8)(3)#146  x(8)(4)#147  x(8)(5)#148  x(8)(6)#149  x(8)(7)#150 
 x(8)(9)#151  x(8)(10)#152  x(8)(11)#153  x(8)(12)#154  x(8)(13)#155 
 x(8)(14)#156  x(8)(15)#157  x(9)(1)#158  x(9)(2)#159  x(9)(3)#160 
 x(9)(4)#161  x(9)(5)#162  x(9)(6)#163  x(9)(7)#164  x(9)(8)#165  x(9)(10)#166 
 x(9)(11)#167  x(9)(12)#168  x(9)(13)#169  x(9)(14)#170  x(9)(15)#171 
 x(10)(1)#172  x(10)(2)#173  x(10)(3)#174  x(10)(4)#175  x(10)(5)#176 
 x(10)(6)#177  x(10)(7)#178  x(10)(8)#179  x(10)(9)#180  x(10)(11)#181 
 x(10)(12)#182  x(10)(13)#183  x(10)(14)#184  x(10)(15)#185  x(11)(1)#186 
 x(11)(2)#187  x(11)(3)#188  x(11)(4)#189  x(11)(5)#190  x(11)(6)#191 
 x(11)(7)#192  x(11)(8)#193  x(11)(9)#194  x(11)(10)#195  x(11)(12)#196 
 x(11)(13)#197  x(11)(14)#198  x(11)(15)#199  x(12)(1)#200  x(12)(2)#201 
 x(12)(3)#202  x(12)(4)#203  x(12)(5)#204  x(12)(6)#205  x(12)(7)#206 
 x(12)(8)#207  x(12)(9)#208  x(12)(10)#209  x(12)(11)#210  x(12)(13)#211 
 x(12)(14)#212  x(12)(15)#213  x(13)(1)#214  x(13)(2)#215  x(13)(3)#216 
 x(13)(4)#217  x(13)(5)#218  x(13)(6)#219  x(13)(7)#220  x(13)(8)#221 
 x(13)(9)#222  x(13)(10)#223  x(13)(11)#224  x(13)(12)#225  x(13)(14)#226 
 x(13)(15)#227  x(14)(1)#228  x(14)(2)#229  x(14)(3)#230  x(14)(4)#231 
 x(14)(5)#232  x(14)(6)#233  x(14)(7)#234  x(14)(8)#235  x(14)(9)#236 
 x(14)(10)#237  x(14)(11)#238  x(14)(12)#239  x(14)(13)#240  x(14)(15)#241 
 x(15)(1)#242  x(15)(2)#243  x(15)(3)#244  x(15)(4)#245  x(15)(5)#246 
 x(15)(6)#247  x(15)(7)#248  x(15)(8)#249  x(15)(9)#250  x(15)(10)#251 
 x(15)(11)#252  x(15)(12)#253  x(15)(13)#254  x(15)(14)#255 
End
